c File: instances/18_0.40_1.col
c
c Description: Random graph of size 18 vertices and P(0.39999999999999997) of edges between any two vertices.
p col 18 153
e 1 6
e 1 11
e 1 12
e 1 14
e 1 18
e 2 6
e 2 9
e 2 15
e 2 17
e 2 18
e 3 5
e 3 8
e 3 14
e 3 16
e 3 17
e 4 5
e 4 10
e 4 11
e 4 12
e 4 14
e 4 16
e 4 17
e 5 6
e 5 7
e 5 11
e 5 14
e 5 17
e 6 8
e 6 10
e 6 11
e 6 12
e 6 13
e 6 15
e 7 11
e 7 17
e 8 11
e 8 12
e 8 13
e 8 18
e 9 10
e 9 13
e 9 17
e 9 18
e 10 12
e 10 13
e 10 18
e 11 12
e 11 17
e 13 16
e 13 17
e 13 18
e 15 16
e 15 18
e 16 17
e 16 18
e 17 18